JulietBench/Juliet_Based_Patch_Bench/linux/CWE-190-Integer-Overflow-or-Wraparound/CVE_2018_13053_5f936e19cc0ef97dbe3a56e9498922ad5ba1edef/solveralarm_timer_nsleep_Snippet_patch2.smt2
; benchmark generated from python API
(set-info :status unknown)
(declare-fun rdi () (_ BitVec 64))
(declare-fun rsi () (_ BitVec 64))
(declare-fun R () (_ BitVec 32))
(assert
 (let ((?x7 (bvadd rsi rdi)))
 (let ((?x9 ((_ extract 31 0) ?x7)))
 (let (($x16 (and (distinct R ?x9) true)))
 (let (($x18 (= R ?x9)))
 (let (($x25 (or $x18 $x16)))
 (not $x25)))))))
(check-sat)
